#######################################
### Exact MIP solver for the HHCRSP ###
#######################################
-- Instance file: new-instances/HHCRSP_75_15_100_1.6_C_RC.txt
-- Max threads: 4
-- Time limit: 999999 seconds
-- Use initial solution: No
Trivial flow violations prevented generating 19325 variables.
Model exported.
Version identifier: 20.1.0.0 | 2020-11-10 | 9bedb6d68
CPXPARAM_Threads                                 4
CPXPARAM_TimeLimit                               999999
Parallel mode: deterministic, using up to 4 threads for concurrent optimization:
 * Starting dual Simplex on 1 thread...
 * Starting Barrier on 3 threads...
Tried aggregator 1 time.
LP Presolve eliminated 3342 rows and 1006 columns.
Reduced LP has 26422 rows, 25332 columns, and 279307 nonzeros.
Presolve time = 0.12 sec. (73.91 ticks)
Symmetry aggregator did 32568 additional substitutions.

Iteration log . . .
Iteration:     1   Dual objective     =             0.000000

Dual crossover.
  Dual:  Fixing 168 variables.
      167 DMoves:  Infeasibility  9.48685769e-14  Objective  1.39000000e+02
        0 DMoves:  Infeasibility  3.43614221e-14  Objective  1.39000000e+02
  Dual:  Pushed 16, exchanged 152.
  Primal:  Fixing 105 variables.
      104 PMoves:  Infeasibility  1.55431223e-15  Objective  1.39000000e+02
        0 PMoves:  Infeasibility  2.77555756e-15  Objective  1.39000000e+02
  Primal:  Pushed 69, exchanged 36.

Dual simplex solved model.


Solution status from MIP model:
-- Processing time: 0.217 sec.
-- Memory used: 87.0322 MB
-- Best bound: inf
-- Obj value: 139
-- Gap: inf%
-- Total distance: 417
-- Total tardiness: 0
-- Largest tardiness: 0
